NAME: Random_50_1
ELLAPSED_TIME_(ms): 100
TOUR_SIZE: 827
TOUR_SECTION
0
34
36
38
6
43
31
10
26
35
46
11
32
37
20
41
49
7
3
9
44
45
33
5
25
47
14
17
27
22
39
19
8
24
42
23
48
4
13
18
12
21
15
40
16
29
30
2
28
1
0
EOF
